15
TFSI- (bis(trifluoromethanesulfonyl)imide) anion for ionic liquid electrolyte simulation
N    0.000000    0.000000    0.000000
S    1.450000    0.000000    0.000000
S   -1.450000    0.000000    0.000000
O    2.150000    1.050000    0.000000
O    2.150000   -1.050000    0.000000
O   -2.150000    1.050000    0.000000
O   -2.150000   -1.050000    0.000000
C    1.450000    0.000000    1.750000
C   -1.450000    0.000000   -1.750000
F    2.000000    0.000000    2.750000
F    0.500000    0.000000    2.200000
F    2.400000    0.800000    2.100000
F   -2.000000    0.000000   -2.750000
F   -0.500000    0.000000   -2.200000
F   -2.400000   -0.800000   -2.100000
